(declare-fun var0 () String)
(assert (str.in.re var0 (re.++ (re.* (re.union (str.to.re "XX") (str.to.re "YY"))) (re.++ (re.union (re.union (str.to.re "U") (str.to.re "VVV")) (re.+ (str.to.re "WWW"))) (re.++ (re.union (re.union (str.to.re "RRR") (str.to.re "S")) (re.* (str.to.re "TT"))) (re.++ (re.* (re.* (str.to.re "Q"))) (re.++ (re.* (re.union (str.to.re "O") (str.to.re "PP"))) (re.++ (re.union (re.+ (str.to.re "M")) (re.+ (str.to.re "NNN"))) (re.++ (re.* (re.+ (str.to.re "L"))) (re.++ (re.+ (re.union (str.to.re "JJ") (str.to.re "K"))) (re.++ (re.union (re.* (str.to.re "GG")) (re.union (str.to.re "HHH") (str.to.re "II"))) (re.++ (re.* (re.union (str.to.re "E") (str.to.re "FF"))) (re.++ (re.union (re.union (str.to.re "BB") (str.to.re "CC")) (re.+ (str.to.re "DD"))) (re.++ (re.union (re.* (str.to.re "zz")) (re.* (str.to.re "A"))) (re.++ (re.* (re.* (str.to.re "y"))) (re.++ (re.union (re.union (str.to.re "u") (str.to.re "vvv")) (re.union (str.to.re "w") (str.to.re "x"))) (re.++ (re.+ (re.* (str.to.re "ttt"))) (re.++ (re.+ (re.* (str.to.re "s"))) (re.++ (re.+ (re.* (str.to.re "rrr"))) (re.++ (re.* (re.+ (str.to.re "q"))) (re.++ (re.union (re.union (str.to.re "n") (str.to.re "o")) (re.+ (str.to.re "ppp"))) (re.++ (re.+ (re.union (str.to.re "l") (str.to.re "mm"))) (re.++ (re.+ (re.+ (str.to.re "k"))) (re.++ (re.union (re.* (str.to.re "h")) (re.union (str.to.re "ii") (str.to.re "jj"))) (re.++ (re.+ (re.union (str.to.re "fff") (str.to.re "ggg"))) (re.++ (re.* (re.+ (str.to.re "ee"))) (re.++ (re.union (re.+ (str.to.re "ccc")) (re.+ (str.to.re "d"))) (re.++ (re.union (re.union (str.to.re "9") (str.to.re "a")) (re.+ (str.to.re "bb"))) (re.++ (re.union (re.union (str.to.re "666") (str.to.re "7")) (re.* (str.to.re "8"))) (re.++ (re.+ (re.+ (str.to.re "5"))) (re.++ (re.* (re.* (str.to.re "4"))) (re.++ (re.union (re.+ (str.to.re "222")) (re.+ (str.to.re "333"))) (re.union (re.+ (str.to.re "000")) (re.* (str.to.re "1")))))))))))))))))))))))))))))))))))
(assert (not (str.in.re var0 (re.++ (re.+ (re.union (str.to.re "XX") (str.to.re "YY"))) (re.++ (re.* (re.* (str.to.re "WWW"))) (re.++ (re.union (re.union (str.to.re "TT") (str.to.re "UUU")) (re.+ (str.to.re "VVV"))) (re.++ (re.* (re.+ (str.to.re "SSS"))) (re.++ (re.* (re.union (str.to.re "QQ") (str.to.re "RR"))) (re.++ (re.* (re.+ (str.to.re "PP"))) (re.++ (re.* (re.* (str.to.re "OOO"))) (re.++ (re.union (re.+ (str.to.re "M")) (re.+ (str.to.re "NNN"))) (re.++ (re.union (re.+ (str.to.re "KK")) (re.+ (str.to.re "L"))) (re.++ (re.+ (re.union (str.to.re "I") (str.to.re "JJJ"))) (re.++ (re.union (re.+ (str.to.re "GGG")) (re.* (str.to.re "HH"))) (re.++ (re.+ (re.+ (str.to.re "FF"))) (re.++ (re.+ (re.union (str.to.re "DD") (str.to.re "EE"))) (re.++ (re.+ (re.+ (str.to.re "C"))) (re.++ (re.+ (re.* (str.to.re "BBB"))) (re.++ (re.union (re.union (str.to.re "xxx") (str.to.re "yyy")) (re.union (str.to.re "zzz") (str.to.re "AA"))) (re.++ (re.+ (re.* (str.to.re "www"))) (re.++ (re.union (re.+ (str.to.re "uu")) (re.* (str.to.re "vv"))) (re.++ (re.union (re.* (str.to.re "rr")) (re.union (str.to.re "sss") (str.to.re "t"))) (re.++ (re.* (re.+ (str.to.re "qq"))) (re.++ (re.+ (re.+ (str.to.re "p"))) (re.++ (re.+ (re.union (str.to.re "n") (str.to.re "ooo"))) (re.++ (re.union (re.* (str.to.re "l")) (re.* (str.to.re "mm"))) (re.++ (re.union (re.union (str.to.re "h") (str.to.re "iii")) (re.union (str.to.re "jj") (str.to.re "k"))) (re.++ (re.union (re.union (str.to.re "ddd") (str.to.re "e")) (re.union (str.to.re "ff") (str.to.re "gg"))) (re.++ (re.union (re.union (str.to.re "aa") (str.to.re "bbb")) (re.* (str.to.re "cc"))) (re.++ (re.+ (re.union (str.to.re "88") (str.to.re "99"))) (re.++ (re.union (re.* (str.to.re "6")) (re.+ (str.to.re "77"))) (re.++ (re.+ (re.union (str.to.re "444") (str.to.re "55"))) (re.++ (re.+ (re.+ (str.to.re "3"))) (re.union (re.union (str.to.re "0") (str.to.re "111")) (re.+ (str.to.re "222"))))))))))))))))))))))))))))))))))))
(check-sat)